n = 10;
colSum=[0,4,1,4,1,3,3,3,6,5];
rowSum=[3,3,5,5,2,3,3,0,3,3];
groups=[|1,1,1,1,1,1,1,1,1,2|3,3,3,3,1,1,4,1,2,2|3,3,4,4,4,4,4,1,5,5|4,4,4,4,6,6,5,5,5,5|6,6,6,6,6,6,6,6,6,5|6,6,7,7,7,7,6,6,6,6|7,7,7,7,7,7,7,7,8,8|8,8,8,8,8,8,8,8,8,8|8,9,9,8,8,8,8,8,8,8|8,10,10,10,10,10,10,10,10,8|];
rowN = 10;
colN = 10;
pair=[|0,1,1,1,1,0,0,0,0,0|0,0,0,0,1,0,0,0,0,0|1,0,0,1,0,0,0,0,0,0|1,0,0,0,1,1,0,0,0,0|0,0,0,0,0,1,0,0,0,0|0,0,0,0,1,0,1,1,0,0|0,0,0,0,0,1,0,1,0,0|0,0,0,0,0,0,0,0,1,1|0,0,0,0,0,0,0,1,0,1|0,0,0,0,0,0,0,1,0,0|];
